11
0 33 22 10 31 62 7 53 95 84 83 
71 0 68 52 37 29 27 9 70 54 24 
79 56 0 3 95 33 27 3 51 70 8 
74 57 82 0 22 78 75 3 13 29 100 
60 78 22 50 0 51 89 57 88 69 5 
44 11 21 79 1 0 43 52 79 1 78 
96 79 15 69 44 62 0 76 26 53 55 
71 92 57 72 77 1 24 0 72 12 71 
36 35 5 69 23 82 56 14 0 69 75 
77 12 48 44 6 93 28 39 83 0 17 
50 75 99 43 69 54 33 17 2 52 0 
